50	100	100	100
76	95	22
76	97	17
83	81	4
73	91	3
96	95	36
88	71	11
87	96	34
97	66	12
77	76	30
84	73	4
80	70	48
95	81	25
96	72	29
71	81	12
71	98	40
94	80	2
72	96	35
89	85	13
84	89	39
86	82	29
86	90	47
76	83	29
72	79	14
94	83	32
80	80	10
97	75	37
83	97	42
99	71	21
93	96	34
93	95	8
92	73	40
81	88	47
81	81	19
88	85	18
69	71	14
88	99	20
74	86	28
81	76	16
92	68	12
71	87	40
78	81	47
95	93	47
91	94	44
80	73	35
72	91	33
87	99	23
69	92	48
79	66	36
70	79	5
73	97	18
